\ Model (null)_copy
\ LP format - for model browsing. Use MPS format to capture full model detail.
Maximize
 
Subject To
 R3267: v_0 = 0.8333333333333334
 R3277: x_0_1 + x_0_2 + x_0_3 + x_0_4 + x_0_5 + x_0_6 + x_0_7 + x_0_8
   + x_0_9 - 12 v_0 >= 0
Bounds
 v_0 free
Binaries
 x_0_1 x_0_2 x_0_3 x_0_4 x_0_5 x_0_6 x_0_7 x_0_8 x_0_9
End
